
Gurobi 9.1.2 (win64) logging started Sat Sep 25 17:58:16 2021

Changed value of parameter LogFile to ../results/logs/log_samuel_kroger_2021_09_25_17_58_13.csv_4_250.log
   Prev:   Default: 
Changed value of parameter method to 3
   Prev: -1  Min: -1  Max: 5  Default: -1
Gurobi Optimizer version 9.1.2 build v9.1.2rc0 (win64)
Thread count: 6 physical cores, 12 logical processors, using up to 12 threads
Optimize a model with 15828 rows, 46266 columns and 65319 nonzeros
Model fingerprint: 0x679a44b6
Variable types: 0 continuous, 46266 integer (46266 binary)
Coefficient statistics:
  Matrix range     [1e+00, 4e+00]
  Objective range  [1e+00, 1e+00]
  Bounds range     [1e+00, 1e+00]
  RHS range        [1e+00, 3e+02]
Found heuristic solution: objective 13467.000000
Presolve removed 14488 rows and 44240 columns
Presolve time: 0.05s
Presolved: 1340 rows, 2026 columns, 6445 nonzeros
Extracted 722 lazy constraints
Variable types: 0 continuous, 2026 integer (1759 binary)

Concurrent LP optimizer: primal simplex, dual simplex, and barrier
Showing barrier log only...

Root barrier log...

Ordering time: 0.00s

Barrier performed 0 iterations in 0.07 seconds
Barrier solve interrupted - model solved by another algorithm


Solved with dual simplex

Root relaxation: objective 1.443250e+04, 1 iterations, 0.00 seconds

    Nodes    |    Current Node    |     Objective Bounds      |     Work
 Expl Unexpl |  Obj  Depth IntInf | Incumbent    BestBd   Gap | It/Node Time

     0     0 14432.5000    0    1 13467.0000 14432.5000  7.17%     -    0s
     0     0 14097.2357    0  321 13467.0000 14097.2357  4.68%     -    0s
     0     0 13975.0308    0  227 13467.0000 13975.0308  3.77%     -    0s
     0     0 13974.2778    0  229 13467.0000 13974.2778  3.77%     -    0s
     0     0 13951.9540    0  119 13467.0000 13951.9540  3.60%     -    0s
     0     0 13948.6823    0  113 13467.0000 13948.6823  3.58%     -    0s
     0     0 13948.0340    0  130 13467.0000 13948.0340  3.57%     -    0s
H    0     0                    13789.000000 13948.0340  1.15%     -    0s
H    0     0                    13796.000000 13948.0340  1.10%     -    0s
H    0     0                    13839.000000 13948.0340  0.79%     -    0s
     0     0 13946.1417    0   92 13839.0000 13946.1417  0.77%     -    0s
H    0     0                    13941.000000 13946.1417  0.04%     -    0s
     0     0 13945.6697    0   92 13941.0000 13945.6697  0.03%     -    0s
     0     0 13944.8722    0   53 13941.0000 13944.8722  0.03%     -    0s
     0     0 13944.7160    0   68 13941.0000 13944.7160  0.03%     -    0s
     0     0 13944.3554    0   48 13941.0000 13944.3554  0.02%     -    0s
     0     0 13944.3554    0   33 13941.0000 13944.3554  0.02%     -    0s
     0     2 13944.1054    0   33 13941.0000 13944.1054  0.02%     -    0s
*   51    59               9    13942.000000 13943.3804  0.01%   6.6    0s

Cutting planes:
  Gomory: 133
  Cover: 9
  Implied bound: 36
  Clique: 2
  MIR: 269
  StrongCG: 14
  GUB cover: 13
  RLT: 8
  Relax-and-lift: 18
  Lazy constraints: 650

Explored 85 nodes (2542 simplex iterations) in 0.56 seconds
Thread count was 12 (of 12 available processors)

Solution count 6: 13942 13941 13839 ... 13467

Optimal solution found (tolerance 1.00e-04)
Best objective 1.394200000000e+04, best bound 1.394300000000e+04, gap 0.0072%

Gurobi 9.1.2 (win64) logging started Sat Sep 25 17:58:23 2021

Changed value of parameter LogFile to ../results/logs/log_samuel_kroger_2021_09_25_17_58_13.csv_4_250.log
   Prev:   Default: 
Changed value of parameter method to 3
   Prev: -1  Min: -1  Max: 5  Default: -1
